unsat
(forall ((A (_ BitVec 1))
         (B (_ BitVec 1))
         (C (_ BitVec 1))
         (D (_ BitVec 1))
         (E (_ BitVec 1))
         (F (_ BitVec 1))
         (G (_ BitVec 1))
         (H (_ BitVec 1))
         (I (_ BitVec 11))
         (J (_ BitVec 1))
         (K (_ BitVec 1))
         (L (_ BitVec 1))
         (M (_ BitVec 1))
         (N (_ BitVec 1))
         (O (_ BitVec 1))
         (P (_ BitVec 1))
         (Q (_ BitVec 1))
         (R (_ BitVec 11))
         (S (_ BitVec 1))
         (T (_ BitVec 12))
         (U (_ BitVec 1))
         (V (_ BitVec 11))
         (W (_ BitVec 11))
         (X (_ BitVec 1))
         (Y (_ BitVec 1))
         (Z (_ BitVec 1))
         (A1 (_ BitVec 1))
         (B1 (_ BitVec 32))
         (C1 (_ BitVec 1))
         (D1 (_ BitVec 1))
         (E1 (_ BitVec 1))
         (F1 (_ BitVec 12))
         (G1 (_ BitVec 1))
         (H1 (_ BitVec 32))
         (I1 (_ BitVec 1))
         (J1 (_ BitVec 1))
         (K1 (_ BitVec 12))
         (L1 (_ BitVec 1))
         (M1 (_ BitVec 12))
         (N1 (_ BitVec 12))
         (O1 (_ BitVec 12))
         (P1 (_ BitVec 3))
         (Q1 (_ BitVec 3))
         (R1 (_ BitVec 12))
         (S1 (_ BitVec 1))
         (T1 (_ BitVec 1))
         (U1 (_ BitVec 1))
         (V1 (_ BitVec 1))
         (W1 (_ BitVec 3))
         (X1 (_ BitVec 1))
         (Y1 (_ BitVec 3))
         (Z1 (_ BitVec 1))
         (A2 (_ BitVec 12))
         (B2 (_ BitVec 1))
         (C2 (_ BitVec 1))
         (D2 (_ BitVec 1))
         (E2 (_ BitVec 1))
         (F2 (_ BitVec 12))
         (G2 (_ BitVec 1))
         (H2 (_ BitVec 1))
         (I2 (_ BitVec 4))
         (J2 (_ BitVec 1))
         (K2 (_ BitVec 1))
         (L2 (_ BitVec 1))
         (M2 (_ BitVec 12))
         (N2 (_ BitVec 12))
         (O2 (_ BitVec 1))
         (P2 (_ BitVec 1))
         (Q2 (_ BitVec 1))
         (R2 (_ BitVec 3))
         (S2 (_ BitVec 1))
         (T2 (_ BitVec 1))
         (U2 (_ BitVec 1))
         (V2 (_ BitVec 1))
         (W2 (_ BitVec 1))
         (X2 (_ BitVec 1))
         (Y2 (_ BitVec 1))
         (Z2 (_ BitVec 11))
         (A3 (_ BitVec 1))
         (B3 (_ BitVec 1))
         (C3 (_ BitVec 12))
         (D3 (_ BitVec 11))
         (E3 (_ BitVec 1))
         (F3 (_ BitVec 12))
         (G3 (_ BitVec 1))
         (H3 (_ BitVec 11))
         (I3 (_ BitVec 1))
         (J3 (_ BitVec 1))
         (K3 (_ BitVec 1))
         (L3 (_ BitVec 1))
         (M3 (_ BitVec 1))
         (N3 (_ BitVec 1))
         (O3 (_ BitVec 1))
         (P3 (_ BitVec 1))
         (Q3 (_ BitVec 1))
         (R3 (_ BitVec 1))
         (S3 (_ BitVec 1))
         (T3 (_ BitVec 11))
         (U3 (_ BitVec 3))
         (V3 (_ BitVec 1))
         (W3 (_ BitVec 1))
         (X3 (_ BitVec 11))
         (Y3 (_ BitVec 1))
         (Z3 (_ BitVec 1))
         (A4 (_ BitVec 11))
         (B4 (_ BitVec 1))
         (C4 (_ BitVec 1))
         (D4 (_ BitVec 1))
         (E4 (_ BitVec 1))
         (F4 (_ BitVec 1))
         (G4 (_ BitVec 24))
         (H4 (_ BitVec 1))
         (I4 (_ BitVec 1))
         (J4 (_ BitVec 1))
         (K4 (_ BitVec 1))
         (L4 (_ BitVec 32))
         (M4 (_ BitVec 1))
         (N4 (_ BitVec 1))
         (O4 (_ BitVec 1))
         (P4 (_ BitVec 1))
         (Q4 (_ BitVec 1))
         (R4 (_ BitVec 4))
         (S4 (_ BitVec 3))
         (T4 (_ BitVec 1))
         (U4 (_ BitVec 1))
         (V4 (_ BitVec 1))
         (W4 (_ BitVec 12))
         (X4 (_ BitVec 1))
         (Y4 (_ BitVec 1))
         (Z4 (_ BitVec 1))
         (A5 (_ BitVec 1))
         (B5 (_ BitVec 24))
         (C5 (_ BitVec 1))
         (D5 (_ BitVec 1))
         (E5 (_ BitVec 1))
         (F5 (_ BitVec 1))
         (G5 (_ BitVec 1))
         (H5 (_ BitVec 12))
         (I5 (_ BitVec 1))
         (J5 (_ BitVec 11))
         (K5 (_ BitVec 11))
         (L5 (_ BitVec 1))
         (M5 (_ BitVec 1))
         (N5 (_ BitVec 1))
         (O5 (_ BitVec 1))
         (P5 (_ BitVec 1))
         (Q5 (_ BitVec 1))
         (R5 (_ BitVec 1))
         (S5 (_ BitVec 1))
         (T5 (_ BitVec 1))
         (U5 (_ BitVec 1))
         (V5 (_ BitVec 1))
         (W5 (_ BitVec 3))
         (X5 (_ BitVec 1))
         (Y5 (_ BitVec 1))
         (Z5 (_ BitVec 1))
         (A6 (_ BitVec 1))
         (B6 (_ BitVec 4))
         (C6 (_ BitVec 1))
         (D6 (_ BitVec 1))
         (E6 (_ BitVec 1))
         (F6 (_ BitVec 4))
         (G6 (_ BitVec 1))
         (H6 (_ BitVec 1))
         (I6 (_ BitVec 1))
         (J6 (_ BitVec 12))
         (K6 (_ BitVec 1))
         (L6 (_ BitVec 1))
         (M6 (_ BitVec 32))
         (N6 (_ BitVec 1))
         (O6 (_ BitVec 1))
         (P6 (_ BitVec 1))
         (Q6 (_ BitVec 1))
         (R6 (_ BitVec 24))
         (S6 (_ BitVec 12))
         (T6 (_ BitVec 1))
         (U6 (_ BitVec 11))
         (V6 (_ BitVec 1)))
  (! (let ((a!1 (and (or (not (= Q4 #b1)) (not (= H3 #b10100000000)))
                     (= S3 #b1)
                     (or (= E6 #b0) (= N3 #b0))
                     (or ((_ bit2bool 0) P2)
                         ((_ bit2bool 0) B3)
                         (not (= S2 #b0)))
                     (or ((_ bit2bool 0) X4) (not (= W3 #b1)))
                     (or ((_ bit2bool 0) X4) (not (= E6 #b1)))
                     (or (= W3 #b0) (= L3 #b1))
                     (or (not (= L3 #b0)) (= Q3 #b0))
                     (or (= E6 #b0) ((_ bit2bool 0) P2) (not (= S2 #b0)))
                     (or (= Q4 #b0) (= L3 #b1))
                     (or (not (= L3 #b1)) (= S2 H2))
                     (or (not (= Q4 #b1)) (not (= A3 #b0)))
                     (or (not (= K #b1)) (not (= Q4 #b1)))
                     (or (= A5 P) (= R5 #b1))
                     (or (= A5 #b0) (= P #b1) (= N6 #b0))
                     (or ((_ bit2bool 0) O2)
                         ((_ bit2bool 0) W3)
                         (not (= E6 #b1)))
                     (or (= I4 #b0) (= P #b1) (not (= B3 #b0)))
                     (or (not (= A1 #b0))
                         (not ((_ bit2bool 10) Z2))
                         (not ((_ bit2bool 5) Z2))
                         (not ((_ bit2bool 7) Z2))
                         (not ((_ bit2bool 6) Z2))
                         (not ((_ bit2bool 0) Z2))
                         (not ((_ bit2bool 4) Z2))
                         (not ((_ bit2bool 3) Z2))
                         (not ((_ bit2bool 2) Z2))
                         (not ((_ bit2bool 1) Z2)))
                     (or (not (= C1 #b0))
                         (not ((_ bit2bool 7) H3))
                         (not ((_ bit2bool 0) H3))
                         (not ((_ bit2bool 2) H3))
                         (not ((_ bit2bool 3) H3))
                         (not ((_ bit2bool 6) H3))
                         (not ((_ bit2bool 1) H3))
                         (not ((_ bit2bool 4) H3))
                         (not ((_ bit2bool 5) H3))
                         (not ((_ bit2bool 10) H3)))
                     (or (not (= E6 #b1))
                         (not (= S2 #b0))
                         (not (= Z2 #b10100000000))))))
       (= (INV!slice!1 A
                       B
                       C
                       D
                       E
                       F
                       G
                       H
                       I
                       J
                       K
                       L
                       M
                       N
                       O
                       P
                       Q
                       R
                       S
                       T
                       U
                       V
                       W
                       X
                       Y
                       Z
                       A1
                       B1
                       C1
                       D1
                       E1
                       F1
                       G1
                       H1
                       I1
                       J1
                       K1
                       L1
                       M1
                       N1
                       O1
                       P1
                       Q1
                       R1
                       S1
                       T1
                       U1
                       V1
                       W1
                       X1
                       Y1
                       Z1
                       A2
                       B2
                       C2
                       D2
                       E2
                       F2
                       G2
                       H2
                       I2
                       J2
                       K2
                       L2
                       M2
                       N2
                       O2
                       P2
                       Q2
                       R2
                       S2
                       T2
                       U2
                       V2
                       W2
                       X2
                       Y2
                       Z2
                       A3
                       B3
                       C3
                       D3
                       E3
                       F3
                       G3
                       H3
                       I3
                       J3
                       K3
                       L3
                       M3
                       N3
                       O3
                       P3
                       Q3
                       R3
                       S3
                       T3
                       U3
                       V3
                       W3
                       X3
                       Y3
                       Z3
                       A4
                       B4
                       C4
                       D4
                       E4
                       F4
                       G4
                       H4
                       I4
                       J4
                       K4
                       L4
                       M4
                       N4
                       O4
                       P4
                       Q4
                       R4
                       S4
                       T4
                       U4
                       V4
                       W4
                       X4
                       Y4
                       Z4
                       A5
                       B5
                       C5
                       D5
                       E5
                       F5
                       G5
                       H5
                       I5
                       J5
                       K5
                       L5
                       M5
                       N5
                       O5
                       P5
                       Q5
                       R5
                       S5
                       T5
                       U5
                       V5
                       W5
                       X5
                       Y5
                       Z5
                       A6
                       B6
                       C6
                       D6
                       E6
                       F6
                       G6
                       H6
                       I6
                       J6
                       K6
                       L6
                       M6
                       N6
                       O6
                       P6
                       Q6
                       R6
                       S6
                       T6
                       U6
                       V6)
          a!1))
     :weight 0))
